myproject/instances/20nodes/rnd20_20.tsp
NAME : rnd20_20.tsp
TYPE : TSP
DIMENSION : 20
EDGE_WEIGHT_TYPE : EUC_2D
NODE_COORD_SECTION
0 324 904
1 403 265
2 495 822
3 293 936
4 542 171
5 530 376
6 620 124
7 259 193
8 765 286
9 886 132
10 887 749
11 706 259
12 856 283
13 29 465
14 870 981
15 287 252
16 309 825
17 45 771
18 774 539
19 872 808
