myproject/instances/20nodes/rnd20_20.opt.tour
NAME : rnd20_20.tsp.tsp.opt.tour
TYPE : TOUR
DIMENSION : 20
TOUR_SECTION
1
3
11
17
12
7
4
2
19
16
20
15
18
13
10
6
5
8
14
9
-1